(set-info :smt-lib-version 2.6)
(set-logic UF)
(set-info :source |Benchmarks from the paper: "Extending Sledgehammer with SMT Solvers" by Jasmin Blanchette, Sascha Bohme, and Lawrence C. Paulson, CADE 2011.  Translated to SMT2 by Andrew Reynolds and Morgan Deters.|)
(set-info :category "industrial")
(set-info :status unsat)
(declare-sort S1 0)
(declare-sort S2 0)
(declare-sort S3 0)
(declare-sort S4 0)
(declare-sort S5 0)
(declare-sort S6 0)
(declare-sort S7 0)
(declare-sort S8 0)
(declare-sort S9 0)
(declare-sort S10 0)
(declare-sort S11 0)
(declare-sort S12 0)
(declare-sort S13 0)
(declare-sort S14 0)
(declare-sort S15 0)
(declare-sort S16 0)
(declare-sort S17 0)
(declare-sort S18 0)
(declare-sort S19 0)
(declare-sort S20 0)
(declare-sort S21 0)
(declare-sort S22 0)
(declare-sort S23 0)
(declare-sort S24 0)
(declare-sort S25 0)
(declare-fun f1 () S1)
(declare-fun f2 () S1)
(declare-fun f3 (S3 S2) S4)
(declare-fun f4 () S3)
(declare-fun f5 (S5 S6) S4)
(declare-fun f6 (S7 S8) S5)
(declare-fun f7 (S9 S6) S7)
(declare-fun f8 () S9)
(declare-fun f9 (S2) S6)
(declare-fun f10 (S2) S8)
(declare-fun f11 (S2) S6)
(declare-fun f12 () S3)
(declare-fun f13 (S2) S6)
(declare-fun f14 (S2) S6)
(declare-fun f15 (S11 S10) S12)
(declare-fun f16 (S3) S11)
(declare-fun f17 (S13 S10) S10)
(declare-fun f18 (S2) S13)
(declare-fun f19 (S14 S12) S12)
(declare-fun f20 (S4) S14)
(declare-fun f21 (S18 S17) S10)
(declare-fun f22 (S15) S18)
(declare-fun f23 (S19 S17) S17)
(declare-fun f24 (S16) S19)
(declare-fun f25 (S15 S16) S2)
(declare-fun f26 (S21 S17) S12)
(declare-fun f27 (S20) S21)
(declare-fun f28 (S20 S16) S4)
(declare-fun f29 (S23 S10) S17)
(declare-fun f30 (S22) S23)
(declare-fun f31 (S22 S2) S16)
(declare-fun f32 (S25 S12) S17)
(declare-fun f33 (S24) S25)
(declare-fun f34 (S24 S4) S16)
(declare-fun f35 (S12 S12) S1)
(declare-fun f36 () S12)
(declare-fun f37 () S12)
(declare-fun f38 (S10) S1)
(declare-fun f39 (S2 S10) S1)
(assert (not (= f1 f2)))
(assert (forall ((?v0 S2)) (= (f3 f4 ?v0) (f5 (f6 (f7 f8 (f9 ?v0)) (f10 ?v0)) (f11 ?v0)))))
(assert (forall ((?v0 S2)) (= (f3 f12 ?v0) (f5 (f6 (f7 f8 (f13 ?v0)) (f10 ?v0)) (f14 ?v0)))))
(assert (forall ((?v0 S3) (?v1 S2) (?v2 S10)) (let ((?v_0 (f16 ?v0))) (= (f15 ?v_0 (f17 (f18 ?v1) ?v2)) (f19 (f20 (f3 ?v0 ?v1)) (f15 ?v_0 ?v2))))))
(assert (forall ((?v0 S15) (?v1 S16) (?v2 S17)) (let ((?v_0 (f22 ?v0))) (= (f21 ?v_0 (f23 (f24 ?v1) ?v2)) (f17 (f18 (f25 ?v0 ?v1)) (f21 ?v_0 ?v2))))))
(assert (forall ((?v0 S20) (?v1 S16) (?v2 S17)) (let ((?v_0 (f27 ?v0))) (= (f26 ?v_0 (f23 (f24 ?v1) ?v2)) (f19 (f20 (f28 ?v0 ?v1)) (f26 ?v_0 ?v2))))))
(assert (forall ((?v0 S22) (?v1 S2) (?v2 S10)) (let ((?v_0 (f30 ?v0))) (= (f29 ?v_0 (f17 (f18 ?v1) ?v2)) (f23 (f24 (f31 ?v0 ?v1)) (f29 ?v_0 ?v2))))))
(assert (forall ((?v0 S24) (?v1 S4) (?v2 S12)) (let ((?v_0 (f33 ?v0))) (= (f32 ?v_0 (f19 (f20 ?v1) ?v2)) (f23 (f24 (f34 ?v0 ?v1)) (f32 ?v_0 ?v2))))))
(assert (forall ((?v0 S12) (?v1 S4) (?v2 S12)) (let ((?v_0 (f20 ?v1))) (=> (= (f35 ?v0 (f19 ?v_0 ?v2)) f1) (and (= (f35 ?v0 (f19 ?v_0 f36)) f1) (= (f35 ?v0 ?v2) f1))))))
(assert (forall ((?v0 S12) (?v1 S4) (?v2 S12)) (let ((?v_0 (f20 ?v1))) (=> (= (f35 ?v0 (f19 ?v_0 f36)) f1) (=> (= (f35 ?v0 ?v2) f1) (= (f35 ?v0 (f19 ?v_0 ?v2)) f1))))))
(assert (not (forall ((?v0 S2) (?v1 S10)) (let ((?v_0 (f16 f4)) (?v_1 (f16 f12)) (?v_2 (f17 (f18 ?v0) ?v1))) (=> (forall ((?v2 S2)) (let ((?v_3 (f10 ?v2))) (=> (= (f35 f37 (f19 (f20 (f5 (f6 (f7 f8 (f9 ?v2)) ?v_3) (f11 ?v2))) f36)) f1) (= (f35 f37 (f19 (f20 (f5 (f6 (f7 f8 (f13 ?v2)) ?v_3) (f14 ?v2))) f36)) f1)))) (=> (= (f38 ?v1) f1) (=> (not (= (f39 ?v0 ?v1) f1)) (=> (=> (= (f35 f37 (f15 ?v_0 ?v1)) f1) (= (f35 f37 (f15 ?v_1 ?v1)) f1)) (=> (= (f35 f37 (f15 ?v_0 ?v_2)) f1) (= (f35 f37 (f15 ?v_1 ?v_2)) f1))))))))))
(check-sat)
(exit)
